[2026-03-24T00:36:24.492Z] Pipeline "set_prova_set_prova_set_s001_g003" → 2026_03_24_00_36_24_set_prova_set_prova_set_s001_g003_max.sol
Set parameter WLSAccessID
Set parameter WLSSecret
Set parameter LicenseID to value 2792458
Set parameter LogFile to value "gurobi.log"
Using license file /root/gurobi.lic
Academic license 2792458 - for non-commercial use only - registered to an___@studenti.unipg.it

Gurobi Optimizer version 13.0.1 build v13.0.1rc0 (linux64 - "Ubuntu 24.04.4 LTS")
Copyright (c) 2026, Gurobi Optimization, LLC

Warning: Duplicate section found (read 'binary') - Is a variable name equal to an LP file format keyword?
Warning: Duplicate section found (read 'binary') - Is a variable name equal to an LP file format keyword?
Warning: Duplicate section found (read 'binary') - Is a variable name equal to an LP file format keyword?
Warning: Duplicate section found (read 'binary') - Is a variable name equal to an LP file format keyword?
Warning: Duplicate section found (read 'binary') - Is a variable name equal to an LP file format keyword?
Warning: Duplicate section found (read 'binary') - Is a variable name equal to an LP file format keyword?
Warning: Duplicate section found (read 'binary') - Is a variable name equal to an LP file format keyword?
Warning: Duplicate section found (read 'binary') - Is a variable name equal to an LP file format keyword?
Warning: Duplicate section found (read 'binary') - Is a variable name equal to an LP file format keyword?
Warning: Duplicate section found (read 'binary') - Is a variable name equal to an LP file format keyword?
Warning: Further warnings of this type will be omitted.
Read LP format model from file /root/bgw/data/uploads/2026_03_24_00_36_24_set_prova_set_prova_set_s001_g003_max.lp
Reading time = 0.00 seconds
: 1331 rows, 181 columns, 4023 nonzeros

Using Gurobi shared library /opt/gurobi1301/linux64/lib/libgurobi.so.13.0.1

CPU model: AMD EPYC-Genoa Processor, instruction set [SSE2|AVX|AVX2|AVX512]
Thread count: 16 physical cores, 16 logical processors, using up to 16 threads

Academic license 2792458 - for non-commercial use only - registered to an___@studenti.unipg.it
Optimize a model with 1331 rows, 181 columns and 4023 nonzeros (Max)
Model fingerprint: 0x9578e9d7
Model has 7 linear objective coefficients
Variable types: 23 continuous, 158 integer (158 binary)
Coefficient statistics:
  Matrix range     [1e+00, 2e+01]
  Objective range  [1e+00, 1e+00]
  Bounds range     [1e+00, 1e+00]
  RHS range        [1e+00, 2e+01]

Found heuristic solution: objective 7.0000000
Presolve removed 182 rows and 43 columns
Presolve time: 0.00s
Presolved: 1149 rows, 138 columns, 3538 nonzeros
Variable types: 0 continuous, 138 integer (131 binary)

Root relaxation: objective 3.100000e+01, 103 iterations, 0.00 seconds (0.00 work units)

    Nodes    |    Current Node    |     Objective Bounds      |     Work
 Expl Unexpl |  Obj  Depth IntInf | Incumbent    BestBd   Gap | It/Node Time

     0     0   31.00000    0   24    7.00000   31.00000   343%     -    0s
H    0     0                      16.0000000   31.00000  93.8%     -    0s
H    0     0                      18.0000000   31.00000  72.2%     -    0s
     0     0   31.00000    0   25   18.00000   31.00000  72.2%     -    0s
H    0     0                      19.0000000   31.00000  63.2%     -    0s
     0     0   31.00000    0   23   19.00000   31.00000  63.2%     -    0s
     0     0   31.00000    0   21   19.00000   31.00000  63.2%     -    0s
H    0     0                      20.0000000   31.00000  55.0%     -    0s
     0     0   31.00000    0   23   20.00000   31.00000  55.0%     -    0s
     0     0   31.00000    0   22   20.00000   31.00000  55.0%     -    0s
     0     0   31.00000    0   24   20.00000   31.00000  55.0%     -    0s
     0     0   31.00000    0   21   20.00000   31.00000  55.0%     -    0s
     0     0   31.00000    0   24   20.00000   31.00000  55.0%     -    0s
     0     0   31.00000    0   23   20.00000   31.00000  55.0%     -    0s
     0     0   31.00000    0   24   20.00000   31.00000  55.0%     -    0s
     0     0   31.00000    0   22   20.00000   31.00000  55.0%     -    0s
     0     0   31.00000    0   22   20.00000   31.00000  55.0%     -    0s
     0     0   31.00000    0   22   20.00000   31.00000  55.0%     -    0s
     0     0   31.00000    0   22   20.00000   31.00000  55.0%     -    0s
     0     0   30.95714    0   22   20.00000   30.95714  54.8%     -    0s
     0     0   30.95714    0   21   20.00000   30.95714  54.8%     -    0s
     0     2   30.00000    0   21   20.00000   30.00000  50.0%     -    0s

Cutting planes:
  Cover: 4
  MIR: 2
  StrongCG: 1
  Inf proof: 9

Explored 1191 nodes (31179 simplex iterations) in 0.36 seconds (0.35 work units)
Thread count was 16 (of 16 available processors)

Solution count 5: 20 19 18 ... 7

Optimal solution found (tolerance 1.00e-04)
Best objective 2.000000000000e+01, best bound 2.000000000000e+01, gap 0.0000%

Wrote result file '/root/bgw/data/results/2026_03_24_00_36_24_set_prova_set_prova_set_s001_g003_max.sol'

